Test: fpga13_9_sat.cnf
Options: -print-activity -no-inverting-opt -sym-usage-var-bump
WARNING: for repeatability, setting FPU to use double precision
============================[ Problem Statistics ]=============================
|                                                                             |
|  Number of symmetries:           26                                         |
|  Number of invertingSyms:         0                                         |
|  Number of variables:           176                                         |
|  Number of clauses:             759                                         |
|  Parse time:                   0.00 s                                       |
|                                                                             |
============================[ Search Statistics ]==============================
| Conflicts |          ORIGINAL         |          LEARNT          | Progress |
|           |    Vars  Clauses Literals |    Limit  Clauses Lit/Cl |          |
===============================================================================
ActiveSyms: 26
ActiveSyms: 24
ActiveSyms: 22
ActiveSyms: 22
ActiveSyms: 22
ActiveSyms: 22
ActiveSyms: 23
ActiveSyms: 21
ActiveSyms: 21
ActiveSyms: 21
ActiveSyms: 21
ActiveSyms: 23
ActiveSyms: 21
ActiveSyms: 21
ActiveSyms: 21
ActiveSyms: 21
ActiveSyms: 23
ActiveSyms: 21
ActiveSyms: 21
ActiveSyms: 21
ActiveSyms: 21
ActiveSyms: 23
ActiveSyms: 21
ActiveSyms: 21
ActiveSyms: 21
ActiveSyms: 21
ActiveSyms: 23
ActiveSyms: 21
ActiveSyms: 21
ActiveSyms: 21
ActiveSyms: 21
ActiveSyms: 23
ActiveSyms: 22
ActiveSyms: 22
ActiveSyms: 22
ActiveSyms: 22
ActiveSyms: 24
ActiveSyms: 22
ActiveSyms: 22
ActiveSyms: 22
ActiveSyms: 23
ActiveSyms: 21
ActiveSyms: 21
ActiveSyms: 21
ActiveSyms: 23
ActiveSyms: 21
ActiveSyms: 21
ActiveSyms: 21
ActiveSyms: 23
ActiveSyms: 21
ActiveSyms: 21
ActiveSyms: 21
ActiveSyms: 23
ActiveSyms: 21
ActiveSyms: 19
ActiveSyms: 19
ActiveSyms: 20
ActiveSyms: 23
ActiveSyms: 21
ActiveSyms: 19
ActiveSyms: 18
ActiveSyms: 18
ActiveSyms: 18
ActiveSyms: 17
ActiveSyms: 17
ActiveSyms: 18
ActiveSyms: 23
ActiveSyms: 21
ActiveSyms: 19
ActiveSyms: 19
ActiveSyms: 17
ActiveSyms: 17
ActiveSyms: 17
ActiveSyms: 17
ActiveSyms: 16
ActiveSyms: 16
ActiveSyms: 16
ActiveSyms: 16
ActiveSyms: 16
ActiveSyms: 17
ActiveSyms: 16
ActiveSyms: 17
ActiveSyms: 17
ActiveSyms: 17
ActiveSyms: 17
ActiveSyms: 16
ActiveSyms: 16
ActiveSyms: 16
ActiveSyms: 16
ActiveSyms: 16
ActiveSyms: 15
ActiveSyms: 16
ActiveSyms: 17
ActiveSyms: 16
ActiveSyms: 16
ActiveSyms: 16
ActiveSyms: 19
ActiveSyms: 19
ActiveSyms: 23
ActiveSyms: 22
ActiveSyms: 18
ActiveSyms: 18
ActiveSyms: 17
ActiveSyms: 16
ActiveSyms: 17
ActiveSyms: 18
ActiveSyms: 18
ActiveSyms: 17
ActiveSyms: 16
ActiveSyms: 15
ActiveSyms: 16
ActiveSyms: 15
ActiveSyms: 16
ActiveSyms: 15
ActiveSyms: 16
ActiveSyms: 17
ActiveSyms: 18
ActiveSyms: 20
ActiveSyms: 17
ActiveSyms: 17
ActiveSyms: 14
ActiveSyms: 14
ActiveSyms: 15
ActiveSyms: 15
ActiveSyms: 15
ActiveSyms: 16
ActiveSyms: 16
ActiveSyms: 16
ActiveSyms: 14
ActiveSyms: 14
ActiveSyms: 14
ActiveSyms: 15
ActiveSyms: 14
ActiveSyms: 14
ActiveSyms: 14
ActiveSyms: 15
ActiveSyms: 15
ActiveSyms: 15
ActiveSyms: 14
ActiveSyms: 14
ActiveSyms: 14
ActiveSyms: 14
ActiveSyms: 15
ActiveSyms: 15
ActiveSyms: 17
ActiveSyms: 15
ActiveSyms: 16
ActiveSyms: 15
ActiveSyms: 15
ActiveSyms: 15
ActiveSyms: 15
ActiveSyms: 18
ActiveSyms: 17
ActiveSyms: 17
ActiveSyms: 16
ActiveSyms: 15
ActiveSyms: 15
ActiveSyms: 14
ActiveSyms: 15
ActiveSyms: 16
ActiveSyms: 14
ActiveSyms: 14
ActiveSyms: 14
ActiveSyms: 16
ActiveSyms: 15
ActiveSyms: 13
ActiveSyms: 13
ActiveSyms: 13
ActiveSyms: 14
ActiveSyms: 14
ActiveSyms: 14
ActiveSyms: 13
ActiveSyms: 14
ActiveSyms: 15
ActiveSyms: 14
ActiveSyms: 15
ActiveSyms: 16
ActiveSyms: 14
ActiveSyms: 14
ActiveSyms: 14
ActiveSyms: 14
ActiveSyms: 13
ActiveSyms: 14
ActiveSyms: 14
ActiveSyms: 15
ActiveSyms: 14
ActiveSyms: 14
ActiveSyms: 14
ActiveSyms: 15
ActiveSyms: 16
ActiveSyms: 17
ActiveSyms: 14
ActiveSyms: 15
ActiveSyms: 18
ActiveSyms: 15
ActiveSyms: 15
ActiveSyms: 14
ActiveSyms: 14
ActiveSyms: 14
ActiveSyms: 15
ActiveSyms: 16
ActiveSyms: 13
ActiveSyms: 13
ActiveSyms: 14
ActiveSyms: 16
ActiveSyms: 16
ActiveSyms: 16
ActiveSyms: 16
ActiveSyms: 18
ActiveSyms: 18
ActiveSyms: 18
ActiveSyms: 24
ActiveSyms: 22
ActiveSyms: 18
ActiveSyms: 18
ActiveSyms: 17
ActiveSyms: 16
ActiveSyms: 16
ActiveSyms: 16
ActiveSyms: 17
ActiveSyms: 17
ActiveSyms: 15
ActiveSyms: 13
ActiveSyms: 13
ActiveSyms: 14
ActiveSyms: 15
ActiveSyms: 15
ActiveSyms: 15
ActiveSyms: 15
ActiveSyms: 15
ActiveSyms: 16
ActiveSyms: 15
ActiveSyms: 15
ActiveSyms: 14
ActiveSyms: 13
ActiveSyms: 13
ActiveSyms: 14
ActiveSyms: 14
ActiveSyms: 14
ActiveSyms: 13
ActiveSyms: 14
ActiveSyms: 14
ActiveSyms: 14
ActiveSyms: 14
ActiveSyms: 14
ActiveSyms: 14
ActiveSyms: 13
ActiveSyms: 15
ActiveSyms: 15
ActiveSyms: 14
ActiveSyms: 14
ActiveSyms: 15
ActiveSyms: 14
ActiveSyms: 14
ActiveSyms: 14
ActiveSyms: 17
ActiveSyms: 16
ActiveSyms: 17
ActiveSyms: 15
ActiveSyms: 17
ActiveSyms: 16
ActiveSyms: 14
ActiveSyms: 14
ActiveSyms: 14
ActiveSyms: 16
ActiveSyms: 17
ActiveSyms: 16
ActiveSyms: 14
ActiveSyms: 14
ActiveSyms: 13
ActiveSyms: 14
ActiveSyms: 15
ActiveSyms: 15
ActiveSyms: 13
ActiveSyms: 16
ActiveSyms: 18
ActiveSyms: 15
ActiveSyms: 16
ActiveSyms: 14
ActiveSyms: 16
ActiveSyms: 15
ActiveSyms: 18
ActiveSyms: 18
ActiveSyms: 15
ActiveSyms: 15
ActiveSyms: 14
ActiveSyms: 13
ActiveSyms: 12
ActiveSyms: 12
ActiveSyms: 12
ActiveSyms: 12
ActiveSyms: 12
ActiveSyms: 11
ActiveSyms: 11
ActiveSyms: 12
ActiveSyms: 12
ActiveSyms: 13
ActiveSyms: 13
ActiveSyms: 13
ActiveSyms: 13
ActiveSyms: 12
|       100 |     176      759     2031 |      278      248     48 |  0.003 % |
ActiveSyms: 13
ActiveSyms: 12
ActiveSyms: 26
ActiveSyms: 22
ActiveSyms: 21
ActiveSyms: 20
ActiveSyms: 18
ActiveSyms: 17
ActiveSyms: 17
ActiveSyms: 18
ActiveSyms: 16
ActiveSyms: 14
ActiveSyms: 14
ActiveSyms: 15
ActiveSyms: 13
ActiveSyms: 13
ActiveSyms: 15
ActiveSyms: 13
ActiveSyms: 13
ActiveSyms: 14
ActiveSyms: 13
ActiveSyms: 13
ActiveSyms: 15
ActiveSyms: 16
ActiveSyms: 15
ActiveSyms: 15
ActiveSyms: 16
ActiveSyms: 17
ActiveSyms: 15
ActiveSyms: 15
ActiveSyms: 15
ActiveSyms: 16
ActiveSyms: 14
ActiveSyms: 16
ActiveSyms: 14
ActiveSyms: 15
ActiveSyms: 12
ActiveSyms: 10
ActiveSyms: 10
ActiveSyms: 11
ActiveSyms: 10
ActiveSyms: 10
ActiveSyms: 12
ActiveSyms: 12
ActiveSyms: 13
ActiveSyms: 11
ActiveSyms: 11
ActiveSyms: 12
ActiveSyms: 11
ActiveSyms: 11
ActiveSyms: 14
ActiveSyms: 12
ActiveSyms: 12
ActiveSyms: 12
ActiveSyms: 13
ActiveSyms: 12
ActiveSyms: 14
ActiveSyms: 14
ActiveSyms: 14
ActiveSyms: 14
ActiveSyms: 13
ActiveSyms: 14
ActiveSyms: 12
ActiveSyms: 12
ActiveSyms: 11
ActiveSyms: 10
ActiveSyms: 10
ActiveSyms: 9
ActiveSyms: 9
ActiveSyms: 9
ActiveSyms: 10
ActiveSyms: 10
ActiveSyms: 10
ActiveSyms: 8
ActiveSyms: 9
ActiveSyms: 8
ActiveSyms: 8
ActiveSyms: 7
ActiveSyms: 6
ActiveSyms: 6
ActiveSyms: 6
ActiveSyms: 7
ActiveSyms: 7
ActiveSyms: 7
ActiveSyms: 7
ActiveSyms: 8
ActiveSyms: 7
ActiveSyms: 8
ActiveSyms: 10
ActiveSyms: 10
ActiveSyms: 8
ActiveSyms: 8
ActiveSyms: 7
ActiveSyms: 7
ActiveSyms: 7
ActiveSyms: 7
ActiveSyms: 7
ActiveSyms: 7
ActiveSyms: 7
ActiveSyms: 7
ActiveSyms: 7
ActiveSyms: 7
ActiveSyms: 7
ActiveSyms: 7
ActiveSyms: 7
ActiveSyms: 8
ActiveSyms: 7
ActiveSyms: 8
ActiveSyms: 7
ActiveSyms: 7
ActiveSyms: 7
ActiveSyms: 7
ActiveSyms: 8
ActiveSyms: 8
ActiveSyms: 7
ActiveSyms: 7
ActiveSyms: 7
ActiveSyms: 7
ActiveSyms: 8
ActiveSyms: 8
ActiveSyms: 10
ActiveSyms: 11
ActiveSyms: 8
ActiveSyms: 8
ActiveSyms: 7
ActiveSyms: 7
ActiveSyms: 8
ActiveSyms: 7
ActiveSyms: 8
ActiveSyms: 7
ActiveSyms: 7
ActiveSyms: 6
ActiveSyms: 7
ActiveSyms: 7
ActiveSyms: 7
ActiveSyms: 7
ActiveSyms: 6
ActiveSyms: 6
ActiveSyms: 5
ActiveSyms: 6
ActiveSyms: 4
ActiveSyms: 4
ActiveSyms: 3
ActiveSyms: 3
ActiveSyms: 5
ActiveSyms: 3
ActiveSyms: 3
ActiveSyms: 2
ActiveSyms: 1
ActiveSyms: 1
ActiveSyms: 1
ActiveSyms: 1
===============================================================================
restarts              : 2
conflicts             : 125            (31250 /sec)
symconflicts          : 26             (6500 /sec)
decisions             : 327            (0.00 % random) (81750 /sec)
propagations          : 2460           (615000 /sec)
sympropagations       : 164            (41000 /sec)
conflict literals     : 5034           (1.02 % deleted)
literals     : 5034           (1.02 % deleted)

HEURISTIC USAGES
random                : 0           
activity w/ lookahead : 0           
activity no lookahead : 0           
original sp           : 326         
sym count             : 0           

Memory used           : 5.00 MB
CPU time              : 0.004 s

SATISFIABLE
